p cnf 29 67
c ind 16 17 18 22 23 24 25 26 27 1 0
c ret 15 19 20 21 0
2 3 5 -7 18 0
2 -3 5 -7 -18 0
-2 -5 0
-2 -3 18 0
-2 7 0
-2 3 -18 0
3 -19 -21 0
3 -4 -21 0
3 -4 -19 0
-3 4 19 0
-3 4 21 0
-3 19 21 0
4 -15 -20 0
-4 15 0
-4 20 0
5 6 -19 -21 0
5 6 19 21 0
-5 -6 0
-5 -19 21 0
-5 19 -21 0
-4 6 -23 0
4 6 23 0
-4 -6 23 0
4 -6 -23 0
7 8 -9 -13 0
6 7 -9 -13 0
-7 13 0
-7 9 0
-6 -7 -8 0
8 19 -21 0
8 -19 21 0
-8 -19 -21 0
-8 19 21 0
9 -10 12 22 0
9 -10 -12 -22 0
-9 10 0
-9 12 -22 0
-9 -12 22 0
10 -11 25 26 0
10 11 -19 -25 -26 0
10 11 19 -25 26 0
-10 25 -26 0
-10 -11 -25 0
-10 11 -19 26 0
-10 11 25 0
-10 19 -26 0
11 15 27 0
-11 -15 0
-11 -27 0
12 15 -20 0
12 -15 20 0
-12 -15 -20 0
-12 15 20 0
13 14 -16 24 -27 0
13 -14 16 -24 27 0
13 -14 -16 24 27 0
13 14 16 -24 -27 0
-13 -16 -24 0
-13 16 24 0
-13 14 27 0
-13 -14 -27 0
14 20 26 0
-14 -20 0
-14 -26 0
1 -2 0
-1 2 0
28 0

